
Gurobi 6.5.2 (win64) logging started 07/22/16 21:34:05


Gurobi 6.5.2 (win64) logging started 07/22/16 21:34:05

Optimize a model with 1595 rows, 289 columns and 3791 nonzeros
Coefficient statistics:
  Matrix range    [1e+00, 4e+02]
  Objective range [2e+00, 4e+02]
  Bounds range    [1e+00, 1e+00]
  RHS range       [1e+00, 2e+03]
Presolve removed 1476 rows and 45 columns
Presolve time: 0.00s
Presolved: 119 rows, 244 columns, 936 nonzeros
Variable types: 0 continuous, 244 integer (244 binary)

Root relaxation: objective 1.980000e+03, 101 iterations, 0.00 seconds

    Nodes    |    Current Node    |     Objective Bounds      |     Work
 Expl Unexpl |  Obj  Depth IntInf | Incumbent    BestBd   Gap | It/Node Time

*    0     0               0    1980.0000000 1980.00000  0.00%     -    0s

Explored 0 nodes (101 simplex iterations) in 0.02 seconds
Thread count was 8 (of 8 available processors)

Optimal solution found (tolerance 1.00e-04)
Best objective 1.980000000000e+03, best bound 1.980000000000e+03, gap 0.0%

Wrote requested result file 'H1\instance16\\Results16SG_Sol5.lp'

